(declare-fun lq_anf$36$$35$$35$7205759403792828594$35$$35$d96q () Int)
(declare-fun papp7 () Int)
(declare-fun lq_tmp$36$x$35$$35$779 () Int)
(declare-fun GHC.Base.id () Int)
(declare-fun totalityError () Int)
(declare-fun fix$36$$36$dIP_a95y () Int)
(declare-fun GHC.Types.$91$$93$ () Int)
(declare-fun lq_anf$36$$35$$35$7205759403792828596$35$$35$d96s () Int)
(declare-fun lq_tmp$36$x$35$$35$1305 () Int)
(declare-fun lq_tmp$36$x$35$$35$516 () Int)
(declare-fun GHC.Real.divMod () Int)
(declare-fun Data.ByteString.Utils.UnalignedAccess.unalignedWriteU16 () Int)
(declare-fun lq_tmp$36$x$35$$35$785 () Int)
(declare-fun lq_anf$36$$35$$35$7205759403792828556$35$$35$d95O () Int)
(declare-fun GHC.Float.sinh () Int)
(declare-fun GHC.Types.C$35$ () Int)
(declare-fun plen () Int)
(declare-fun GHC.Real.$47$ () Int)
(declare-fun GHC.Float.atanh () Int)
(declare-fun lq_tmp$36$x$35$$35$744 () Int)
(declare-fun GHC.Float.tan () Int)
(declare-fun GHC.Word.W32$35$ () Int)
(declare-fun GHC.Types.$58$ () Int)
(declare-fun lq_tmp$36$x$35$$35$1268 () Int)
(declare-fun tail () Int)
(declare-fun GHC.Float.asinh () Int)
(declare-fun lq_tmp$36$x$35$$35$743 () Int)
(declare-fun lq_tmp$36$x$35$$35$1532 () Int)
(declare-fun GHC.Float.pi () Int)
(declare-fun lq_tmp$36$x$35$$35$1607 () Int)
(declare-fun GHC.Real.div () Int)
(declare-fun GHC.Float.tanh () Int)
(declare-fun fix$36$$36$dIP_a95u () Int)
(declare-fun GHC.Word.W8$35$ () Int)
(declare-fun lq_anf$36$$35$$35$7205759403792828613$35$$35$d96J () Int)
(declare-fun lq_anf$36$$35$$35$7205759403792828615$35$$35$d96L () Int)
(declare-fun GHC.Tuple.$40$$44$$41$ () Int)
(declare-fun GHC.Real.$94$ () Int)
(declare-fun GHC.Base.$36$ () Int)
(declare-fun papp5 () Int)
(declare-fun snd () Int)
(declare-fun GHC.Base.$43$$43$ () Int)
(declare-fun lq_tmp$36$x$35$$35$480 () Int)
(declare-fun GHC.Maybe.Just () Int)
(declare-fun x_Tuple22 () Int)
(declare-fun lq_tmp$36$x$35$$35$1796 () Int)
(declare-fun GHC.Real.fromIntegral () Int)
(declare-fun GHC.IO.Exception.IOError () Int)
(declare-fun GHC.Types.Module () Int)
(declare-fun GHC.Stack.Types.FreezeCallStack () Int)
(declare-fun GHC.Types.TrNameD () Int)
(declare-fun lq_tmp$36$x$35$$35$1372 () Int)
(declare-fun lq_tmp$36$x$35$$35$1897 () Int)
(declare-fun Data.ByteString.Utils.UnalignedAccess.unalignedWriteFloat () Int)
(declare-fun pbase () Int)
(declare-fun lq_tmp$36$x$35$$35$1574 () Int)
(declare-fun GHC.Float.sqrt () Int)
(declare-fun deref () Int)
(declare-fun lit$36$.$47$Data$47$ByteString$47$Utils$47$UnalignedAccess.hs () Str)
(declare-fun lq_anf$36$$35$$35$7205759403792828653$35$$35$d97n () Int)
(declare-fun lq_anf$36$$35$$35$7205759403792828651$35$$35$d97l () Int)
(declare-fun lq_anf$36$$35$$35$7205759403792828575$35$$35$d967 () Int)
(declare-fun lq_tmp$36$x$35$$35$1837 () Int)
(declare-fun lit$36$undefined () Str)
(declare-fun lq_tmp$36$x$35$$35$522 () Int)
(declare-fun addrLen () Int)
(declare-fun GHC.Real.$36$W$58$$37$ () Int)
(declare-fun lq_anf$36$$35$$35$7205759403792828672$35$$35$d97G () Int)
(declare-fun papp3 () Int)
(declare-fun lq_anf$36$$35$$35$7205759403792828670$35$$35$d97E () Int)
(declare-fun GHC.Real.toInteger () Int)
(declare-fun GHC.Float.logBase () Int)
(declare-fun lq_tmp$36$x$35$$35$1794 () Int)
(declare-fun lit$36$bytestring$45$lh$45$0.13.0.0$45$5odPtf5eoawLYRpIZ0llE6 () Str)
(declare-fun lq_tmp$36$x$35$$35$583 () Int)
(declare-fun GHC.Ptr.FunPtr () Int)
(declare-fun lit$36$Data.ByteString.Utils.UnalignedAccess () Str)
(declare-fun GHC.Enum.C$58$Bounded () Int)
(declare-fun fix$36$$36$dIP_a95C () Int)
(declare-fun GHC.Types.True () Bool)
(declare-fun GHC.CString.unpackCString$35$ () Int)
(declare-fun GHC.Float.asin () Int)
(declare-fun lq_anf$36$$35$$35$7205759403792828632$35$$35$d972 () Int)
(declare-fun GHC.Stack.Types.EmptyCallStack () Int)
(declare-fun x_Tuple33 () Int)
(declare-fun Data.Either.Right () Int)
(declare-fun GHC.Float.atan () Int)
(declare-fun lq_tmp$36$x$35$$35$1635 () Int)
(declare-fun GHC.Ptr.minusPtr () Int)
(declare-fun isNullPtr () Int)
(declare-fun lq_tmp$36$x$35$$35$1109 () Int)
(declare-fun lq_anf$36$$35$$35$7205759403792828634$35$$35$d974 () Int)
(declare-fun GHC.Float.$42$$42$ () Int)
(declare-fun GHC.Stack.Types.emptyCallStack () Int)
(declare-fun lq_tmp$36$x$35$$35$742 () Int)
(declare-fun cast_as () Int)
(declare-fun GHC.Ptr.Ptr () Int)
(declare-fun lq_tmp$36$x$35$$35$1533 () Int)
(declare-fun fix$36$$36$dIP_a95i () Int)
(declare-fun lq_tmp$36$x$35$$35$1270 () Int)
(declare-fun lq_tmp$36$x$35$$35$1269 () Int)
(declare-fun lq_tmp$36$x$35$$35$1371 () Real)
(declare-fun cast_as_int () Int)
(declare-fun GHC.Num.$43$ () Int)
(declare-fun lq_tmp$36$x$35$$35$1006 () Int)
(declare-fun GHC.Types.F$35$ () Int)
(declare-fun Data.ByteString.Utils.UnalignedAccess.unalignedWriteDouble () Int)
(declare-fun lq_tmp$36$x$35$$35$1042 () Int)
(declare-fun lq_tmp$36$x$35$$35$846 () Int)
(declare-fun lq_anf$36$$35$$35$7205759403792828558$35$$35$d95Q () Int)
(declare-fun len () Int)
(declare-fun lq_tmp$36$x$35$$35$1311 () Int)
(declare-fun GHC.Types.LT () Int)
(declare-fun Data.ByteString.Utils.UnalignedAccess.unalignedWriteU64 () Int)
(declare-fun lq_tmp$36$x$35$$35$1568 () Int)
(declare-fun GHC.Tuple.$40$$44$$44$$41$ () Int)
(declare-fun papp1 () Int)
(declare-fun lq_tmp$36$x$35$$35$1048 () Int)
(declare-fun GHC.Err.undefined () Int)
(declare-fun GHC.Ptr.castPtr () Int)
(declare-fun papp6 () Int)
(declare-fun GHC.Real.mod () Int)
(declare-fun GHC.Float.acos () Int)
(declare-fun GHC.Classes.C$58$IP () Int)
(declare-fun Data.Either.Left () Int)
(declare-fun liquid_internal_this () Int)
(declare-fun GHC.Real.fromRational () Int)
(declare-fun fldList () Int)
(declare-fun lq_tmp$36$x$35$$35$555 () Int)
(declare-fun GHC.Tuple.$40$$41$ () Int)
(declare-fun lqdc$35$$35$$36$select$35$$35$GHC.Maybe.Just$35$$35$1 () Int)
(declare-fun GHC.Types.I$35$ () Int)
(declare-fun lq_tmp$36$x$35$$35$481 () Int)
(declare-fun x_Tuple31 () Int)
(declare-fun GHC.Num.Integer.IS () Int)
(declare-fun GHC.Word.W16$35$ () Int)
(declare-fun GHC.Real.quot () Int)
(declare-fun Data.Tuple.fst () Int)
(declare-fun GHC.Word.W64$35$ () Int)
(declare-fun lq_tmp$36$x$35$$35$1531 () Int)
(declare-fun Foreign.Ptr.IntPtr () Int)
(declare-fun GHC.Float.acosh () Int)
(declare-fun Data.Tuple.snd () Int)
(declare-fun Data.ByteString.Utils.UnalignedAccess.unalignedReadU64 () Int)
(declare-fun GHC.Types.EQ () Int)
(declare-fun GHC.Real.$58$$37$ () Int)
(declare-fun Data.ByteString.Utils.UnalignedAccess.unalignedWriteU32 () Int)
(declare-fun fst () Int)
(declare-fun GHC.Num.negate () Int)
(declare-fun GHC.Num.$45$ () Int)
(declare-fun GHC.Real.rem () Int)
(declare-fun fix$36$$36$dIP_a95q () Int)
(declare-fun lq_tmp$36$x$35$$35$845 () Int)
(declare-fun lq_tmp$36$x$35$$35$818 () Int)
(declare-fun GHC.Real.recip () Int)
(declare-fun lq_tmp$36$x$35$$35$1005 () Int)
(declare-fun autolen () Int)
(declare-fun GHC.Float.cosh () Int)
(declare-fun GHC.Base.. () Int)
(declare-fun lq_tmp$36$x$35$$35$479 () Int)
(declare-fun papp4 () Int)
(declare-fun GHC.Stack.Types.PushCallStack () Int)
(declare-fun GHC.Stack.Types.pushCallStack () Int)
(declare-fun GHC.Real.quotRem () Int)
(declare-fun GHC.Stack.Types.SrcLoc () Int)
(declare-fun GHC.Num.fromInteger () Int)
(declare-fun GHC.Float.log () Int)
(declare-fun lq_tmp$36$x$35$$35$1795 () Int)
(declare-fun lq_tmp$36$x$35$$35$1344 () Int)
(declare-fun lq_tmp$36$x$35$$35$582 () Int)
(declare-fun GHC.Ptr.plusPtr () Int)
(declare-fun GHC.Float.sin () Int)
(declare-fun x_Tuple21 () Int)
(declare-fun GHC.Num.abs () Int)
(declare-fun head () Int)
(declare-fun GHC.Maybe.Nothing () Int)
(declare-fun GHC.Types.D$35$ () Int)
(declare-fun lq_tmp$36$x$35$$35$1634 () Real)
(declare-fun fix$36$$36$dIP_a95m () Int)
(declare-fun GHC.Num.Integer.IP () Int)
(declare-fun lq_tmp$36$x$35$$35$1108 () Int)
(declare-fun Foreign.Ptr.WordPtr () Int)
(declare-fun lq_tmp$36$x$35$$35$1081 () Int)
(declare-fun GHC.Base.map () Int)
(declare-fun x_Tuple32 () Int)
(declare-fun lq_tmp$36$x$35$$35$1831 () Int)
(declare-fun GHC.Err.error () Int)
(declare-fun GHC.Float.exp () Int)
(declare-fun GHC.Types.TrNameS () Int)
(declare-fun GHC.Num.Integer.IN () Int)
(declare-fun lq_tmp$36$x$35$$35$1870 () Int)
(declare-fun GHC.Num.$42$ () Int)
(declare-fun lq_tmp$36$x$35$$35$1007 () Int)
(declare-fun GHC.Types.False () Bool)
(declare-fun papp2 () Int)
(declare-fun GHC.Float.cos () Int)
(declare-fun GHC.Types.GT () Int)
(declare-fun lq_anf$36$$35$$35$7205759403792828577$35$$35$d969 () Int)
(declare-fun apply$35$$35$31 (Int (_ BitVec 64)) Bool)
(declare-fun apply$35$$35$25 (Int (_ BitVec 32)) Bool)
(declare-fun apply$35$$35$1 (Int Int) Bool)
(declare-fun apply$35$$35$5 (Int Int) (_ BitVec 64))
(declare-fun apply$35$$35$4 (Int Int) (_ BitVec 32))
(declare-fun apply$35$$35$8 (Int Bool) Real)
(declare-fun apply$35$$35$35 (Int (_ BitVec 64)) (_ BitVec 64))
(declare-fun apply$35$$35$34 (Int (_ BitVec 64)) (_ BitVec 32))
(declare-fun apply$35$$35$28 (Int (_ BitVec 32)) (_ BitVec 32))
(declare-fun apply$35$$35$29 (Int (_ BitVec 32)) (_ BitVec 64))
(declare-fun apply$35$$35$14 (Int Real) Real)
(declare-fun apply$35$$35$27 (Int (_ BitVec 32)) Str)
(declare-fun apply$35$$35$33 (Int (_ BitVec 64)) Str)
(declare-fun apply$35$$35$19 (Int Str) Bool)
(declare-fun apply$35$$35$6 (Int Bool) Int)
(declare-fun apply$35$$35$13 (Int Real) Bool)
(declare-fun apply$35$$35$21 (Int Str) Str)
(declare-fun apply$35$$35$22 (Int Str) (_ BitVec 32))
(declare-fun apply$35$$35$23 (Int Str) (_ BitVec 64))
(declare-fun apply$35$$35$2 (Int Int) Real)
(declare-fun apply$35$$35$15 (Int Real) Str)
(declare-fun apply$35$$35$30 (Int (_ BitVec 64)) Int)
(declare-fun apply$35$$35$24 (Int (_ BitVec 32)) Int)
(declare-fun apply$35$$35$18 (Int Str) Int)
(declare-fun apply$35$$35$0 (Int Int) Int)
(declare-fun apply$35$$35$9 (Int Bool) Str)
(declare-fun apply$35$$35$10 (Int Bool) (_ BitVec 32))
(declare-fun apply$35$$35$11 (Int Bool) (_ BitVec 64))
(declare-fun apply$35$$35$32 (Int (_ BitVec 64)) Real)
(declare-fun apply$35$$35$26 (Int (_ BitVec 32)) Real)
(declare-fun apply$35$$35$16 (Int Real) (_ BitVec 32))
(declare-fun apply$35$$35$17 (Int Real) (_ BitVec 64))
(declare-fun apply$35$$35$20 (Int Str) Real)
(declare-fun apply$35$$35$3 (Int Int) Str)
(declare-fun apply$35$$35$7 (Int Bool) Bool)
(declare-fun apply$35$$35$12 (Int Real) Int)
(declare-fun coerce$35$$35$31 ((_ BitVec 64)) Bool)
(declare-fun coerce$35$$35$25 ((_ BitVec 32)) Bool)
(declare-fun coerce$35$$35$1 (Int) Bool)
(declare-fun coerce$35$$35$5 (Int) (_ BitVec 64))
(declare-fun coerce$35$$35$4 (Int) (_ BitVec 32))
(declare-fun coerce$35$$35$8 (Bool) Real)
(declare-fun coerce$35$$35$35 ((_ BitVec 64)) (_ BitVec 64))
(declare-fun coerce$35$$35$34 ((_ BitVec 64)) (_ BitVec 32))
(declare-fun coerce$35$$35$28 ((_ BitVec 32)) (_ BitVec 32))
(declare-fun coerce$35$$35$29 ((_ BitVec 32)) (_ BitVec 64))
(declare-fun coerce$35$$35$14 (Real) Real)
(declare-fun coerce$35$$35$27 ((_ BitVec 32)) Str)
(declare-fun coerce$35$$35$33 ((_ BitVec 64)) Str)
(declare-fun coerce$35$$35$19 (Str) Bool)
(declare-fun coerce$35$$35$6 (Bool) Int)
(declare-fun coerce$35$$35$13 (Real) Bool)
(declare-fun coerce$35$$35$21 (Str) Str)
(declare-fun coerce$35$$35$22 (Str) (_ BitVec 32))
(declare-fun coerce$35$$35$23 (Str) (_ BitVec 64))
(declare-fun coerce$35$$35$2 (Int) Real)
(declare-fun coerce$35$$35$15 (Real) Str)
(declare-fun coerce$35$$35$30 ((_ BitVec 64)) Int)
(declare-fun coerce$35$$35$24 ((_ BitVec 32)) Int)
(declare-fun coerce$35$$35$18 (Str) Int)
(declare-fun coerce$35$$35$0 (Int) Int)
(declare-fun coerce$35$$35$9 (Bool) Str)
(declare-fun coerce$35$$35$10 (Bool) (_ BitVec 32))
(declare-fun coerce$35$$35$11 (Bool) (_ BitVec 64))
(declare-fun coerce$35$$35$32 ((_ BitVec 64)) Real)
(declare-fun coerce$35$$35$26 ((_ BitVec 32)) Real)
(declare-fun coerce$35$$35$16 (Real) (_ BitVec 32))
(declare-fun coerce$35$$35$17 (Real) (_ BitVec 64))
(declare-fun coerce$35$$35$20 (Str) Real)
(declare-fun coerce$35$$35$3 (Int) Str)
(declare-fun coerce$35$$35$7 (Bool) Bool)
(declare-fun coerce$35$$35$12 (Real) Int)
(declare-fun smt_lambda$35$$35$31 ((_ BitVec 64) Bool) Int)
(declare-fun smt_lambda$35$$35$25 ((_ BitVec 32) Bool) Int)
(declare-fun smt_lambda$35$$35$1 (Int Bool) Int)
(declare-fun smt_lambda$35$$35$5 (Int (_ BitVec 64)) Int)
(declare-fun smt_lambda$35$$35$4 (Int (_ BitVec 32)) Int)
(declare-fun smt_lambda$35$$35$8 (Bool Real) Int)
(declare-fun smt_lambda$35$$35$35 ((_ BitVec 64) (_ BitVec 64)) Int)
(declare-fun smt_lambda$35$$35$34 ((_ BitVec 64) (_ BitVec 32)) Int)
(declare-fun smt_lambda$35$$35$28 ((_ BitVec 32) (_ BitVec 32)) Int)
(declare-fun smt_lambda$35$$35$29 ((_ BitVec 32) (_ BitVec 64)) Int)
(declare-fun smt_lambda$35$$35$14 (Real Real) Int)
(declare-fun smt_lambda$35$$35$27 ((_ BitVec 32) Str) Int)
(declare-fun smt_lambda$35$$35$33 ((_ BitVec 64) Str) Int)
(declare-fun smt_lambda$35$$35$19 (Str Bool) Int)
(declare-fun smt_lambda$35$$35$6 (Bool Int) Int)
(declare-fun smt_lambda$35$$35$13 (Real Bool) Int)
(declare-fun smt_lambda$35$$35$21 (Str Str) Int)
(declare-fun smt_lambda$35$$35$22 (Str (_ BitVec 32)) Int)
(declare-fun smt_lambda$35$$35$23 (Str (_ BitVec 64)) Int)
(declare-fun smt_lambda$35$$35$2 (Int Real) Int)
(declare-fun smt_lambda$35$$35$15 (Real Str) Int)
(declare-fun smt_lambda$35$$35$30 ((_ BitVec 64) Int) Int)
(declare-fun smt_lambda$35$$35$24 ((_ BitVec 32) Int) Int)
(declare-fun smt_lambda$35$$35$18 (Str Int) Int)
(declare-fun smt_lambda$35$$35$0 (Int Int) Int)
(declare-fun smt_lambda$35$$35$9 (Bool Str) Int)
(declare-fun smt_lambda$35$$35$10 (Bool (_ BitVec 32)) Int)
(declare-fun smt_lambda$35$$35$11 (Bool (_ BitVec 64)) Int)
(declare-fun smt_lambda$35$$35$32 ((_ BitVec 64) Real) Int)
(declare-fun smt_lambda$35$$35$26 ((_ BitVec 32) Real) Int)
(declare-fun smt_lambda$35$$35$16 (Real (_ BitVec 32)) Int)
(declare-fun smt_lambda$35$$35$17 (Real (_ BitVec 64)) Int)
(declare-fun smt_lambda$35$$35$20 (Str Real) Int)
(declare-fun smt_lambda$35$$35$3 (Int Str) Int)
(declare-fun smt_lambda$35$$35$7 (Bool Bool) Int)
(declare-fun smt_lambda$35$$35$12 (Real Int) Int)
(declare-fun lam_arg$35$$35$1$35$$35$6 () Bool)
(declare-fun lam_arg$35$$35$2$35$$35$6 () Bool)
(declare-fun lam_arg$35$$35$3$35$$35$6 () Bool)
(declare-fun lam_arg$35$$35$4$35$$35$6 () Bool)
(declare-fun lam_arg$35$$35$5$35$$35$6 () Bool)
(declare-fun lam_arg$35$$35$6$35$$35$6 () Bool)
(declare-fun lam_arg$35$$35$7$35$$35$6 () Bool)
(declare-fun lam_arg$35$$35$1$35$$35$30 () (_ BitVec 64))
(declare-fun lam_arg$35$$35$2$35$$35$30 () (_ BitVec 64))
(declare-fun lam_arg$35$$35$3$35$$35$30 () (_ BitVec 64))
(declare-fun lam_arg$35$$35$4$35$$35$30 () (_ BitVec 64))
(declare-fun lam_arg$35$$35$5$35$$35$30 () (_ BitVec 64))
(declare-fun lam_arg$35$$35$6$35$$35$30 () (_ BitVec 64))
(declare-fun lam_arg$35$$35$7$35$$35$30 () (_ BitVec 64))
(declare-fun lam_arg$35$$35$1$35$$35$24 () (_ BitVec 32))
(declare-fun lam_arg$35$$35$2$35$$35$24 () (_ BitVec 32))
(declare-fun lam_arg$35$$35$3$35$$35$24 () (_ BitVec 32))
(declare-fun lam_arg$35$$35$4$35$$35$24 () (_ BitVec 32))
(declare-fun lam_arg$35$$35$5$35$$35$24 () (_ BitVec 32))
(declare-fun lam_arg$35$$35$6$35$$35$24 () (_ BitVec 32))
(declare-fun lam_arg$35$$35$7$35$$35$24 () (_ BitVec 32))
(declare-fun lam_arg$35$$35$1$35$$35$18 () Str)
(declare-fun lam_arg$35$$35$2$35$$35$18 () Str)
(declare-fun lam_arg$35$$35$3$35$$35$18 () Str)
(declare-fun lam_arg$35$$35$4$35$$35$18 () Str)
(declare-fun lam_arg$35$$35$5$35$$35$18 () Str)
(declare-fun lam_arg$35$$35$6$35$$35$18 () Str)
(declare-fun lam_arg$35$$35$7$35$$35$18 () Str)
(declare-fun lam_arg$35$$35$1$35$$35$0 () Int)
(declare-fun lam_arg$35$$35$2$35$$35$0 () Int)
(declare-fun lam_arg$35$$35$3$35$$35$0 () Int)
(declare-fun lam_arg$35$$35$4$35$$35$0 () Int)
(declare-fun lam_arg$35$$35$5$35$$35$0 () Int)
(declare-fun lam_arg$35$$35$6$35$$35$0 () Int)
(declare-fun lam_arg$35$$35$7$35$$35$0 () Int)
(declare-fun lam_arg$35$$35$1$35$$35$12 () Real)
(declare-fun lam_arg$35$$35$2$35$$35$12 () Real)
(declare-fun lam_arg$35$$35$3$35$$35$12 () Real)
(declare-fun lam_arg$35$$35$4$35$$35$12 () Real)
(declare-fun lam_arg$35$$35$5$35$$35$12 () Real)
(declare-fun lam_arg$35$$35$6$35$$35$12 () Real)
(declare-fun lam_arg$35$$35$7$35$$35$12 () Real)


(assert (distinct lit$36$Data.ByteString.Utils.UnalignedAccess lit$36$bytestring$45$lh$45$0.13.0.0$45$5odPtf5eoawLYRpIZ0llE6 lit$36$undefined lit$36$.$47$Data$47$ByteString$47$Utils$47$UnalignedAccess.hs))
(assert (distinct GHC.Types.GT GHC.Types.EQ GHC.Types.LT))
(assert (distinct GHC.Types.False GHC.Types.True))
(assert (= (strLen lit$36$.$47$Data$47$ByteString$47$Utils$47$UnalignedAccess.hs) 42))
(assert (= (strLen lit$36$undefined) 9))
(assert (= (strLen lit$36$bytestring$45$lh$45$0.13.0.0$45$5odPtf5eoawLYRpIZ0llE6) 45))
(assert (= (strLen lit$36$Data.ByteString.Utils.UnalignedAccess) 37))
(push 1)
(push 1)
(pop 1)
(pop 1)
